% Auto-generated by scripts/generate_dzn.py
% problem_type   = regex
% instance       = regex_43
% source_json    = instances_json/1_medium_blowup/regex_43.json
% blowup         = 5.375
% representation = DFA

mode = 0;

var_count = 17;
Q = 129;
S = 2;
q0 = 1;
F = {89, 90, 91, 92, 93, 94, 95, 96, 97, 98, 99, 100, 101, 102, 103, 104, 105, 106, 107, 108, 109, 110, 111, 112, 113, 114, 115, 116, 117, 118, 119, 120, 121, 122, 123, 124, 125, 126, 127, 128, 129};
d_dfa = array2d(1..129, 1..2, [
  1, 2,
  3, 2,
  4, 2,
  6, 5,
  8, 7,
  9, 7,
  11, 10,
  12, 10,
  13, 10,
  15, 14,
  16, 14,
  18, 17,
  19, 14,
  21, 20,
  22, 20,
  24, 23,
  26, 25,
  27, 25,
  28, 20,
  30, 29,
  31, 29,
  33, 32,
  35, 34,
  36, 34,
  38, 37,
  39, 37,
  40, 37,
  41, 29,
  43, 42,
  44, 42,
  46, 45,
  48, 47,
  49, 47,
  51, 50,
  52, 50,
  53, 50,
  55, 54,
  56, 54,
  58, 57,
  59, 54,
  60, 42,
  62, 61,
  63, 61,
  65, 64,
  67, 66,
  68, 66,
  70, 69,
  71, 69,
  72, 69,
  74, 73,
  75, 73,
  77, 76,
  78, 73,
  80, 79,
  81, 79,
  83, 82,
  85, 84,
  86, 84,
  87, 79,
  88, 61,
  90, 89,
  91, 89,
  93, 92,
  95, 94,
  96, 94,
  98, 97,
  99, 97,
  100, 97,
  102, 101,
  103, 101,
  105, 104,
  106, 101,
  108, 107,
  109, 107,
  111, 110,
  113, 112,
  114, 112,
  115, 107,
  117, 116,
  118, 116,
  120, 119,
  122, 121,
  123, 121,
  125, 124,
  126, 124,
  127, 124,
  128, 116,
  129, 89,
  3, 2,
  4, 2,
  6, 5,
  8, 7,
  9, 7,
  11, 10,
  12, 10,
  13, 10,
  15, 14,
  16, 14,
  18, 17,
  19, 14,
  21, 20,
  22, 20,
  24, 23,
  26, 25,
  27, 25,
  28, 20,
  30, 29,
  31, 29,
  33, 32,
  35, 34,
  36, 34,
  38, 37,
  39, 37,
  40, 37,
  41, 29,
  43, 42,
  44, 42,
  46, 45,
  48, 47,
  49, 47,
  51, 50,
  52, 50,
  53, 50,
  55, 54,
  56, 54,
  58, 57,
  59, 54,
  60, 42,
  1, 2
]);
d_nfa = array2d(1..129, 1..2, [
  {}, {},
  {}, {},
  {}, {},
  {}, {},
  {}, {},
  {}, {},
  {}, {},
  {}, {},
  {}, {},
  {}, {},
  {}, {},
  {}, {},
  {}, {},
  {}, {},
  {}, {},
  {}, {},
  {}, {},
  {}, {},
  {}, {},
  {}, {},
  {}, {},
  {}, {},
  {}, {},
  {}, {},
  {}, {},
  {}, {},
  {}, {},
  {}, {},
  {}, {},
  {}, {},
  {}, {},
  {}, {},
  {}, {},
  {}, {},
  {}, {},
  {}, {},
  {}, {},
  {}, {},
  {}, {},
  {}, {},
  {}, {},
  {}, {},
  {}, {},
  {}, {},
  {}, {},
  {}, {},
  {}, {},
  {}, {},
  {}, {},
  {}, {},
  {}, {},
  {}, {},
  {}, {},
  {}, {},
  {}, {},
  {}, {},
  {}, {},
  {}, {},
  {}, {},
  {}, {},
  {}, {},
  {}, {},
  {}, {},
  {}, {},
  {}, {},
  {}, {},
  {}, {},
  {}, {},
  {}, {},
  {}, {},
  {}, {},
  {}, {},
  {}, {},
  {}, {},
  {}, {},
  {}, {},
  {}, {},
  {}, {},
  {}, {},
  {}, {},
  {}, {},
  {}, {},
  {}, {},
  {}, {},
  {}, {},
  {}, {},
  {}, {},
  {}, {},
  {}, {},
  {}, {},
  {}, {},
  {}, {},
  {}, {},
  {}, {},
  {}, {},
  {}, {},
  {}, {},
  {}, {},
  {}, {},
  {}, {},
  {}, {},
  {}, {},
  {}, {},
  {}, {},
  {}, {},
  {}, {},
  {}, {},
  {}, {},
  {}, {},
  {}, {},
  {}, {},
  {}, {},
  {}, {},
  {}, {},
  {}, {},
  {}, {},
  {}, {},
  {}, {},
  {}, {},
  {}, {},
  {}, {},
  {}, {},
  {}, {},
  {}, {},
  {}, {},
  {}, {},
  {}, {},
  {}, {},
  {}, {}
]);
